10	5
0	5	2	3	4	1	5
1	5	8	6	7	9	10
2	5	7	8	9	10	6
3	2	8	9
4	5	8	10	7	6	9
5	4	10	7	9	8
6	1	11
7	1	11
8	1	11
9	1	11
10	1	11
11	0
0	0	0	0	0	0	0
1	3	0	0	0	0	5
2	1	2	4	5	0	0
3	4	0	5	1	0	4
4	1	0	3	4	0	3
5	6	0	0	1	0	0
6	7	5	0	5	0	5
7	10	4	2	0	5	0
8	2	0	5	0	2	0
9	1	0	5	3	5	1
10	5	0	3	0	4	0
11	0	0	0	0	0	0
5	9	8	4	10
